50, 585
40, 40
26, 26
35, 35
46, 46
6, 6
15, 15
39, 39
30, 30
38, 38
26, 26
18, 18
2, 2
38, 38
3, 3
36, 36
4, 4
5, 5
12, 12
22, 22
22, 22
26, 26
12, 12
10, 10
25, 25
39, 39
12, 12
36, 36
41, 41
1, 1
3, 3
29, 29
40, 40
15, 15
7, 7
14, 14
45, 45
19, 19
3, 3
1, 1
5, 5
28, 28
49, 49
22, 22
49, 49
7, 7
23, 23
26, 26
33, 33
44, 44
44, 44
